Solutions	
793.0	
781.0	
772.0	
770.0	
768.0	
762.0	
761.0	
761.0	
742.0	
708.0	
690.0	
678.0	
670.0	
660.0	
656.0	
653.0	
651.0	
649.0	
644.0	
644.0	
644.0	
645.0	
637.0	
638.0	
639.0	
640.0	
643.0	
646.0	
649.0	
652.0	
655.0	
659.0	
662.0	
662.0	
666.0	
667.0	
669.0	
668.0	
667.0	
651.0	
648.0	
645.0	
647.0	
649.0	
652.0	
655.0	
662.0	
664.0	
664.0	
658.0	
659.0	
664.0	
664.0	
665.0	
666.0	
669.0	
666.0	
663.0	
668.0	
668.0	
670.0	
676.0	
676.0	
677.0	
683.0	
680.0	
667.0	
665.0	
664.0	
663.0	
664.0	
666.0	
664.0	
664.0	
667.0	
670.0	
668.0	
663.0	
667.0	
666.0	
673.0	
669.0	
672.0	
674.0	
675.0	
675.0	
675.0	
676.0	
684.0	
687.0	
687.0	
683.0	
674.0	
673.0	
674.0	
671.0	
671.0	
662.0	
662.0	
655.0	
652.0	
655.0	
660.0	
667.0	
674.0	
677.0	
683.0	
680.0	
676.0	
682.0	
682.0	
681.0	
673.0	
670.0	
669.0	
669.0	
670.0	
666.0	
662.0	
664.0	
668.0	
668.0	
670.0	
668.0	
659.0	
660.0	
661.0	
654.0	
656.0	
659.0	
665.0	
672.0	
670.0	
673.0	
672.0	
668.0	
668.0	
670.0	
674.0	
672.0	
673.0	
674.0	
671.0	
668.0	
660.0	
665.0	
666.0	
675.0	
679.0	
683.0	
682.0	
678.0	
676.0	
676.0	
667.0	
668.0	
661.0	
669.0	
667.0	
671.0	
679.0	
680.0	
683.0	
692.0	
702.0	
705.0	
705.0	
707.0	
715.0	
722.0	
723.0	
732.0	
742.0	
750.0	
745.0	
739.0	
738.0	
717.0	
704.0	
693.0	
684.0	
676.0	
674.0	
674.0	
680.0	
689.0	
699.0	
698.0	
704.0	
713.0	
717.0	
726.0	
720.0	
730.0	
732.0	
727.0	
727.0	
713.0	
712.0	
709.0	
703.0	
689.0	
672.0	
660.0	
663.0	
650.0	
655.0	
663.0	
661.0	
668.0	
668.0	
669.0	
660.0	
671.0	
681.0	
684.0	
695.0	
701.0	
693.0	
